Route #1: 2 34 48 40 33 36 11 43 49 9 12 37 44
Route #2: 27 20 30 14 31 6
Route #3: 7 25 47 26 18 4
Route #4: 24 5 39
Route #5: 10 35 45 41 23 3
Route #6: 13 38 22 46 16
Route #7: 32 19 29 28 1
Route #8: 21 42 17 8 15
Cost 1349